(set-logic HORN)
(declare-fun state (Int (Array Int Int) (Array Int Int) (Array Int Int) (Array Int Int) Int Int (Array Int Int) (Array Int Int) Int Int Int Int Int Int Int Bool Bool Bool (Array Int Int)) Bool)
(assert (forall ((|A| Int) (|R| (Array Int Int)) (|C| (Array Int Int)) (|D| (Array Int Int)) (|E| (Array Int Int)) (|S| Int) (|G| Int) (|H| (Array Int Int)) (|I| (Array Int Int)) (|T| Int) (|K| Int) (|L| Int) (|M| Int) (|N| Int) (|O| Int) (|P| Int) (|Q| Bool) (|.loc.3| Bool) (|.loc.4| Bool) (|R_0| (Array Int Int)) (|.x.81| Int) (|.x.79| (Array Int Int)) (|.x.77| Int) (|.x.75| (Array Int Int)) (|.x.71| Int) (|.x.73| (Array Int Int)) (|.loc.5| Bool) (|.loc.6| Bool) (|.x.85| Int) (|.x.84| Int) (|.x.86| Int) (|.x.74| (Array Int Int)) (|.x.72| (Array Int Int)) (|.x.78| (Array Int Int)) (|.x.76| Int) (|.x.80| Int) (|Q_4| Bool) (|.x.82| Int) (|.x.83| Int) (|.xtv.1| (Array Int Int))) (=> (and (and (not .loc.4) (not .loc.3)) (and (and (and (and (and (= D E) (not Q)) (= S G)) (= T K)) (= H I)) (= R C))) (state |A| |R| |C| |D| |E| |S| |G| |H| |I| |T| |K| |L| |M| |N| |O| |P| |Q| |.loc.3| |.loc.4| |R_0|))))
(assert (forall ((|A| Int) (|R| (Array Int Int)) (|C| (Array Int Int)) (|D| (Array Int Int)) (|E| (Array Int Int)) (|S| Int) (|G| Int) (|H| (Array Int Int)) (|I| (Array Int Int)) (|T| Int) (|K| Int) (|L| Int) (|M| Int) (|N| Int) (|O| Int) (|P| Int) (|Q| Bool) (|.loc.3| Bool) (|.loc.4| Bool) (|R_0| (Array Int Int)) (|.x.81| Int) (|.x.79| (Array Int Int)) (|.x.77| Int) (|.x.75| (Array Int Int)) (|.x.71| Int) (|.x.73| (Array Int Int)) (|.loc.5| Bool) (|.loc.6| Bool) (|.x.85| Int) (|.x.84| Int) (|.x.86| Int) (|.x.74| (Array Int Int)) (|.x.72| (Array Int Int)) (|.x.78| (Array Int Int)) (|.x.76| Int) (|.x.80| Int) (|Q_4| Bool) (|.x.82| Int) (|.x.83| Int) (|.xtv.1| (Array Int Int))) (=> (and (state |A| |R| |C| |D| |E| |S| |G| |H| |I| |T| |K| |L| |M| |N| |O| |P| |Q| |.loc.3| |.loc.4| |R_0|) (let ((.def_31 (not .loc.3))) (let ((.def_69 (= .x.85 4))) (let ((.def_76 (select D .x.86))) (let ((.def_119 (and (= (store D .x.86 (store .def_76 (+ .x.84 8) 4)) .x.74) (and (= (store R_0 .x.86 1) .x.72) (and (= (store H .x.86 12) .x.78) (and (= (select .def_76 (+ .x.84 4)) 2) (and (= (select .def_76 (+ .x.84 8)) 3) (and (= (select .def_76 .x.84) 1) (and (= (select R_0 .x.86) 0) (and (not (= .x.86 0)) (and (= .x.84 0) (and (= .x.85 (select (select .x.74 .x.86) (+ .x.84 8))) (not (<= .x.71 .x.86)))))))))))))) (let ((.def_129 (or Q (and (= R_0 (store R 0 0)) (and (= .x.76 0) (= .x.80 0)))))) (let ((.def_133 (= L .x.82))) (let ((.def_151 (= Q Q_4))) (let ((.def_165 (not .loc.6))) (and (and (not .loc.4) (and (= K .x.81) (and (= I .x.79) (and (= G .x.77) (and (= E .x.75) (and (= A .x.71) (= C .x.73))))))) (or (or (and (and (not .loc.5) .loc.6) (or (and .def_31 (and (or Q (not .def_69)) (and (or Q .def_119) (and (and .def_129 Q_4) .def_133)))) (and (or Q (and (= .x.83 0) (= .x.72 (store R P 0)))) (and (= D .x.74) (and (= S .x.76) (and (= H .x.78) (and (= T .x.80) (and (and .loc.3 (or Q_4 (= .x.82 .x.83))) .def_151)))))))) (and (and .loc.5 (and .def_31 (and .def_133 (and .def_129 (and Q Q_4))))) .def_165)) (and (or .def_119 Q_4) (and (or .def_69 Q_4) (and .def_165 (and .def_151 (and .loc.5 (and .def_31 (and .def_129 .def_133)))))))))))))))))) (state |.x.71| |.x.72| |.x.73| |.x.74| |.x.75| |.x.76| |.x.77| |.x.78| |.x.79| |.x.80| |.x.81| |.x.82| |.x.83| |.x.84| |.x.85| |.x.86| |Q_4| |.loc.5| |.loc.6| |.xtv.1|))))
(assert (forall ((|A| Int) (|R| (Array Int Int)) (|C| (Array Int Int)) (|D| (Array Int Int)) (|E| (Array Int Int)) (|S| Int) (|G| Int) (|H| (Array Int Int)) (|I| (Array Int Int)) (|T| Int) (|K| Int) (|L| Int) (|M| Int) (|N| Int) (|O| Int) (|P| Int) (|Q| Bool) (|.loc.3| Bool) (|.loc.4| Bool) (|R_0| (Array Int Int)) (|.x.81| Int) (|.x.79| (Array Int Int)) (|.x.77| Int) (|.x.75| (Array Int Int)) (|.x.71| Int) (|.x.73| (Array Int Int)) (|.loc.5| Bool) (|.loc.6| Bool) (|.x.85| Int) (|.x.84| Int) (|.x.86| Int) (|.x.74| (Array Int Int)) (|.x.72| (Array Int Int)) (|.x.78| (Array Int Int)) (|.x.76| Int) (|.x.80| Int) (|Q_4| Bool) (|.x.82| Int) (|.x.83| Int) (|.xtv.1| (Array Int Int))) (=> (state |A| |R| |C| |D| |E| |S| |G| |H| |I| |T| |K| |L| |M| |N| |O| |P| |Q| |.loc.3| |.loc.4| |R_0|) (not (and Q (and .loc.4 (not .loc.3)))))))
(check-sat)
